set Wires := 4 5 6 9 12;

# input parameters 1
param   C :=
        4   0.092
        5   0.112
        6   0.141
        9   0.42
        12  0.719;

param   R :=
        4   0.279
        5   0.160
        6   0.120
        9   0.065
        12  0.039;

param   A :=
        4   0.00175
        5   0.00130
        6   0.00161
        9   0.00095
        12  0.00048;

